(set-info :status unknown)
(declare-fun a1 () Real)
(declare-fun a0 () Real)
(assert
 (forall ((x1 Real) (x2 Real) )(let (($x71 (>= (- (- (+ a0 (* a1 x2)) (^ x1 2.0)) (^ x2 2.0)) 0.0)))
 (let (($x72 (<= x2 10.0)))
 (let (($x73 (>= x2 (- 10.0))))
 (let (($x74 (<= x1 10.0)))
 (let (($x75 (>= x1 (- 10.0))))
 (let (($x76 (and $x75 $x74 $x73 $x72)))
 (let (($x81 (>= (- (- 1.0 (^ x1 2.0)) (^ (- x2 2.0) 2.0)) 0.0)))
 (=> (and $x81 $x76) $x71)))))))))
 )
(assert
 (forall ((x1 Real) (x2 Real) )(let ((?x94 (- (+ a0 (* a1 (- x2 (* (* (/ 1.0 10.0) x2) (+ 1.0 x1))))) (^ (* (/ 9.0 10.0) x1) 2.0))))
 (let (($x96 (>= (- ?x94 (^ (- x2 (* (* (/ 1.0 10.0) x2) (+ 1.0 x1))) 2.0)) 0.0)))
 (let (($x72 (<= x2 10.0)))
 (let (($x73 (>= x2 (- 10.0))))
 (let (($x74 (<= x1 10.0)))
 (let (($x75 (>= x1 (- 10.0))))
 (let (($x76 (and $x75 $x74 $x73 $x72)))
 (let (($x99 (>= (- (- 3.0 (^ x1 2.0)) (^ (- x2 2.0) 2.0)) 0.0)))
 (let (($x71 (>= (- (- (+ a0 (* a1 x2)) (^ x1 2.0)) (^ x2 2.0)) 0.0)))
 (=> (and $x71 $x99 $x76) $x96)))))))))))
 )
(assert
 (forall ((x1 Real) (x2 Real) )(let (($x72 (<= x2 10.0)))
 (let (($x73 (>= x2 (- 10.0))))
 (let (($x74 (<= x1 10.0)))
 (let (($x75 (>= x1 (- 10.0))))
 (let (($x76 (and $x75 $x74 $x73 $x72)))
 (let (($x99 (>= (- (- 3.0 (^ x1 2.0)) (^ (- x2 2.0) 2.0)) 0.0)))
 (let (($x71 (>= (- (- (+ a0 (* a1 x2)) (^ x1 2.0)) (^ x2 2.0)) 0.0)))
 (=> (and $x71 (not $x99) $x76) (<= (+ (- (* (/ 1.0 5.0) (^ x2 2.0)) 2.0) x2) 0.0))))))))))
 )
(assert
 (let (($x21 (>= a1 (- 5.0))))
 (let (($x20 (>= a0 (- 5.0))))
 (let (($x18 (<= a1 5.0)))
 (let (($x17 (<= a0 5.0)))
 (and $x17 $x18 $x20 $x21))))))
(check-sat)
